c read Graph
c width = 16
c time = 27 ms
c width = 3
c time = 41 ms
c width = 3
c time = 5270 ms
s td 33 4 36
b 1 1 2 13
b 2 2 3 13 14
b 3 10 11 23 24
b 4 3 13 14 26
b 5 3 14 15 26
b 6 10 23 24 35
b 7 3 15 26 27
b 8 3 15 27 28
b 9 10 23 34 35
b 10 3 4 15 28
b 11 4 15 16 28
b 12 4 16 17 28
b 13 10 22 23 34
b 14 4 17 28 29
b 15 4 17 29 30
b 16 10 22 33 34
b 17 4 5 17 30
b 18 5 17 18 30
b 19 5 6 18 30
b 20 10 21 22 33
b 21 9 10 21 33
b 22 6 7 18 30
b 23 7 18 19 30
b 24 7 19 30 31
b 25 7 8 19 31
b 26 8 19 20 31
b 27 8 20 31 32
b 28 8 9 20 32
b 29 9 20 21 32
b 30 9 21 32 33
b 31 24 35 36
b 32 13 25 26
b 33 11 12 24
1 2
2 4
3 33
3 6
4 32
4 5
5 7
6 31
6 9
7 8
8 10
9 13
10 11
11 12
12 14
13 16
14 15
15 17
16 20
17 18
18 19
19 22
20 21
21 30
22 23
23 24
24 25
25 26
26 27
27 28
28 29
29 30
